objective value:                           -6415.6864
x0                                                  1 	(obj:-57.7194)
x36                                                 1 	(obj:-53.5512)
x60                                                 1 	(obj:-32.4)
x68                                                 1 	(obj:-125.714)
x76                                                 1 	(obj:-1049.18)
x94                                                 1 	(obj:-148.776)
x101                                                1 	(obj:-157.669)
x117                                                1 	(obj:-271.75)
x121                                                1 	(obj:-506.708)
x139                                                1 	(obj:-296.44)
x147                                                1 	(obj:-279.175)
x240                                                1 	(obj:-384.554)
x246                                                1 	(obj:-79.6372)
x263                                                1 	(obj:-216.909)
x278                                                1 	(obj:-83.8082)
x348                                                1 	(obj:-162.556)
x349                                                1 	(obj:-299.864)
x359                                                1 	(obj:-140.582)
x363                                                1 	(obj:-824.195)
x380                                                1 	(obj:-65.8214)
x427                                                1 	(obj:-116.57)
x460                                                1 	(obj:-446.656)
x471                                                1 	(obj:-329.808)
x499                                                1 	(obj:-285.643)
